data;
set K:= K1 K2 K3 K4 K5 K6 K7 K8 K9 K10 K11 K12 K13 K14 K15 ;

set F:= F1 F2 F3 ;

set Q:= Q1 Q2 ;

param T:= 45;
param V: 
	K1  K2  K3  K4  K5  K6  K7  K8  K9  K10 K11 K12 K13 K14 K15 :=
Q1	1   1   1   1   1   1   1   1   1   0   0   0   0   0   0   
Q2	0   0   0   0   0   0   0   0   0   1   1   1   1   1   1   
; # if resorce k is of type q

param TF:= 
K1 6
K2 6
K3 6
K4 6
K5 6
K6 6
K7 6
K8 6
K9 6
K10 12
K11 12
K12 12
K13 12
K14 12
K15 12
; # number of continuous time slots resource can fly

param TR:= 
K1 2
K2 2
K3 2
K4 2
K5 2
K6 2
K7 2
K8 2
K9 2
K10 4
K11 4
K12 4
K13 4
K14 4
K15 4
; #  number of continuous time slots resource k needs to rest between flights

param P:= 
K1 36
K2 36
K3 36
K4 36
K5 36
K6 36
K7 36
K8 36
K9 36
K10 36
K11 36
K12 36
K13 36
K14 36
K15 36
; #  number of continuous time slots a pilot can be present including rest times for resource k 

param N:= 
K1 4
K2 4
K3 4
K4 4
K5 4
K6 4
K7 4
K8 4
K9 4
K10 2
K11 1
K12 2
K13 1
K14 2
K15 2
; # max number of flights resource k can fly in the total time period

param A: 
	K1  K2  K3  K4  K5  K6  K7  K8  K9  K10 K11 K12 K13 K14 K15 :=
1	1   1   1   1   1   1   1   1   1   1   0   1   1   1   1   
2	1   1   1   1   1   1   1   1   1   1   0   1   1   1   1   
3	1   1   1   1   1   1   1   1   1   1   0   1   1   1   1   
4	1   1   1   1   1   1   1   1   1   1   0   1   1   1   1   
5	1   1   1   1   1   1   1   1   1   1   0   1   1   1   1   
6	1   1   1   1   1   1   1   1   1   1   0   1   1   1   1   
7	1   1   1   1   1   1   1   1   1   1   0   1   1   1   1   
8	1   1   1   1   1   1   1   1   1   1   0   1   1   1   1   
9	1   1   1   1   1   1   1   1   1   1   0   1   1   1   1   
10	1   1   1   1   1   1   1   1   1   1   0   1   1   1   1   
11	1   1   1   1   1   1   1   1   1   1   0   1   1   1   1   
12	1   1   1   1   1   1   1   1   1   1   0   1   1   1   1   
13	1   1   1   1   1   1   1   1   1   1   0   1   1   1   1   
14	1   1   1   1   1   1   1   1   1   1   0   1   1   1   1   
15	1   1   1   1   1   1   1   1   1   1   1   1   1   1   1   
16	1   1   1   1   1   1   1   1   1   1   1   1   1   1   1   
17	1   1   1   1   1   1   1   1   1   1   1   1   1   1   1   
18	1   1   1   1   1   1   1   1   1   1   1   1   1   1   1   
19	1   1   1   1   1   1   1   1   1   1   1   1   1   1   1   
20	1   1   1   1   1   1   1   1   1   1   1   1   1   1   1   
21	1   1   1   1   1   1   1   1   1   1   1   1   1   1   1   
22	1   1   1   1   1   1   1   1   1   1   1   1   1   1   1   
23	1   1   1   1   1   1   1   1   1   1   1   1   1   1   1   
24	1   1   1   1   1   1   1   1   1   1   1   1   1   1   1   
25	1   1   1   1   1   1   1   1   1   1   1   1   1   1   1   
26	1   1   1   1   1   1   1   1   1   1   1   1   1   1   1   
27	1   1   1   1   1   1   1   1   1   1   1   1   1   1   1   
28	1   1   1   1   1   1   1   1   1   1   1   1   1   1   1   
29	1   1   1   1   1   1   1   1   1   1   1   1   1   1   1   
30	1   1   1   1   1   1   1   1   1   1   1   1   1   1   1   
31	1   1   1   1   1   1   1   1   1   1   1   1   1   1   1   
32	1   1   1   1   1   1   1   1   1   1   1   1   1   1   1   
33	1   1   1   1   1   1   1   1   1   1   1   1   1   1   1   
34	1   1   1   1   1   1   1   1   1   1   1   1   1   1   1   
35	1   1   1   1   1   1   1   1   1   1   1   1   1   1   1   
36	1   1   1   1   1   1   1   1   1   1   1   1   1   1   1   
37	1   1   1   1   1   1   1   1   1   1   1   1   1   1   1   
38	1   1   1   1   1   1   1   1   1   1   1   1   1   1   1   
39	1   1   1   1   1   1   1   1   1   1   1   1   0   1   1   
40	1   1   1   1   1   1   1   1   1   1   1   1   0   1   1   
41	1   1   1   1   1   1   1   1   1   1   1   1   0   1   1   
42	1   1   1   1   1   1   1   1   1   1   1   1   0   1   1   
43	1   1   1   1   1   1   1   1   1   1   1   1   0   1   1   
44	1   1   1   1   1   1   1   1   1   1   1   1   0   1   1   
45	1   1   1   1   1   1   1   1   1   1   1   1   0   1   1   
; # availability of resorce k in time slot t

param B: 
	F1  F2  F3  :=
Q1	1   0   0   
Q2	0   0   0   
; # if front f requires resources of type q

param U: 
	F1  F2  F3  :=
K1	0   0   0   
K2	0   0   0   
K3	0   0   0   
K4	0   0   0   
K5	0   0   0   
K6	0   0   0   
K7	0   0   0   
K8	0   0   0   
K9	0   0   0   
K10	2   2   2   
K11	1   1   1   
K12	2   2   2   
K13	0   0   0   
K14	1   1   1   
K15	0   0   0   
; # transit time of resource

param C:= 
K1 900
K2 900
K3 900
K4 900
K5 900
K6 1500
K7 1500
K8 4500
K9 4500
K10 5500
K11 5500
K12 5500
K13 5500
K14 5500
K15 5500
; #  water capacity of resource k

param S:= 
F1 9
F2 10
F3 9
; # max number of resources that can fly at front f in the same time slot

param D:= 

[*,*,F1 ]:  K1    K2    K3    K4    K5    K6    K7    K8    K9    K10   K11   K12   K13   K14   K15   :=
1           1.92  1.92  1.92  1.92  1.92  1.92  1.92  1.53  1.53  1.15  1.15  1.15  1.15  1.15  1.15  
2           1.92  1.92  1.92  1.92  1.92  1.92  1.92  1.53  1.53  1.15  1.15  1.15  1.15  1.15  1.15  
3           1.92  1.92  1.92  1.92  1.92  1.92  1.92  1.53  1.53  1.15  1.15  1.15  1.15  1.15  1.15  
4           1.92  1.92  1.92  1.92  1.92  1.92  1.92  1.53  1.53  1.15  1.15  1.15  1.15  1.15  1.15  
5           1.92  1.92  1.92  1.92  1.92  1.92  1.92  1.53  1.53  1.15  1.15  1.15  1.15  1.15  1.15  
6           1.92  1.92  1.92  1.92  1.92  1.92  1.92  1.53  1.53  1.15  1.15  1.15  1.15  1.15  1.15  
7           1.92  1.92  1.92  1.92  1.92  1.92  1.92  1.53  1.53  1.15  1.15  1.15  1.15  1.15  1.15  
8           1.92  1.92  1.92  1.92  1.92  1.92  1.92  1.53  1.53  1.15  1.15  1.15  1.15  1.15  1.15  
9           1.92  1.92  1.92  1.92  1.92  1.92  1.92  1.53  1.53  1.15  1.15  1.15  1.15  1.15  1.15  
10          1.92  1.92  1.92  1.92  1.92  1.92  1.92  1.53  1.53  1.15  1.15  1.15  1.15  1.15  1.15  
11          1.92  1.92  1.92  1.92  1.92  1.92  1.92  1.53  1.53  1.15  1.15  1.15  1.15  1.15  1.15  
12          1.92  1.92  1.92  1.92  1.92  1.92  1.92  1.53  1.53  1.15  1.15  1.15  1.15  1.15  1.15  
13          1.92  1.92  1.92  1.92  1.92  1.92  1.92  1.53  1.53  1.15  1.15  1.15  1.15  1.15  1.15  
14          1.92  1.92  1.92  1.92  1.92  1.92  1.92  1.53  1.53  1.15  1.15  1.15  1.15  1.15  1.15  
15          1.92  1.92  1.92  1.92  1.92  1.92  1.92  1.53  1.53  1.15  1.15  1.15  1.15  1.15  1.15  
16          1.92  1.92  1.92  1.92  1.92  1.92  1.92  1.53  1.53  1.15  1.15  1.15  1.15  1.15  1.15  
17          1.92  1.92  1.92  1.92  1.92  1.92  1.92  1.53  1.53  1.15  1.15  1.15  1.15  1.15  1.15  
18          1.92  1.92  1.92  1.92  1.92  1.92  1.92  1.53  1.53  1.15  1.15  1.15  1.15  1.15  1.15  
19          1.92  1.92  1.92  1.92  1.92  1.92  1.92  1.53  1.53  1.15  1.15  1.15  1.15  1.15  1.15  
20          1.92  1.92  1.92  1.92  1.92  1.92  1.92  1.53  1.53  1.15  1.15  1.15  1.15  1.15  1.15  
21          1.92  1.92  1.92  1.92  1.92  1.92  1.92  1.53  1.53  1.15  1.15  1.15  1.15  1.15  1.15  
22          1.92  1.92  1.92  1.92  1.92  1.92  1.92  1.53  1.53  1.15  1.15  1.15  1.15  1.15  1.15  
23          1.92  1.92  1.92  1.92  1.92  1.92  1.92  1.53  1.53  1.15  1.15  1.15  1.15  1.15  1.15  
24          1.92  1.92  1.92  1.92  1.92  1.92  1.92  1.53  1.53  1.15  1.15  1.15  1.15  1.15  1.15  
25          1.82  1.82  1.82  1.82  1.82  1.82  1.82  1.45  1.45  1.09  1.09  1.09  1.09  1.09  1.09  
26          1.82  1.82  1.82  1.82  1.82  1.82  1.82  1.45  1.45  1.09  1.09  1.09  1.09  1.09  1.09  
27          1.82  1.82  1.82  1.82  1.82  1.82  1.82  1.45  1.45  1.09  1.09  1.09  1.09  1.09  1.09  
28          1.82  1.82  1.82  1.82  1.82  1.82  1.82  1.45  1.45  1.09  1.09  1.09  1.09  1.09  1.09  
29          1.82  1.82  1.82  1.82  1.82  1.82  1.82  1.45  1.45  1.09  1.09  1.09  1.09  1.09  1.09  
30          1.82  1.82  1.82  1.82  1.82  1.82  1.82  1.45  1.45  1.09  1.09  1.09  1.09  1.09  1.09  
31          1.82  1.82  1.82  1.82  1.82  1.82  1.82  1.45  1.45  1.09  1.09  1.09  1.09  1.09  1.09  
32          1.82  1.82  1.82  1.82  1.82  1.82  1.82  1.45  1.45  1.09  1.09  1.09  1.09  1.09  1.09  
33          1.82  1.82  1.82  1.82  1.82  1.82  1.82  1.45  1.45  1.09  1.09  1.09  1.09  1.09  1.09  
34          1.92  1.92  1.92  1.92  1.92  1.92  1.92  1.53  1.53  1.15  1.15  1.15  1.15  1.15  1.15  
35          1.92  1.92  1.92  1.92  1.92  1.92  1.92  1.53  1.53  1.15  1.15  1.15  1.15  1.15  1.15  
36          1.92  1.92  1.92  1.92  1.92  1.92  1.92  1.53  1.53  1.15  1.15  1.15  1.15  1.15  1.15  
37          1.92  1.92  1.92  1.92  1.92  1.92  1.92  1.53  1.53  1.15  1.15  1.15  1.15  1.15  1.15  
38          1.92  1.92  1.92  1.92  1.92  1.92  1.92  1.53  1.53  1.15  1.15  1.15  1.15  1.15  1.15  
39          1.92  1.92  1.92  1.92  1.92  1.92  1.92  1.53  1.53  1.15  1.15  1.15  1.15  1.15  1.15  
40          1.92  1.92  1.92  1.92  1.92  1.92  1.92  1.53  1.53  1.15  1.15  1.15  1.15  1.15  1.15  
41          1.92  1.92  1.92  1.92  1.92  1.92  1.92  1.53  1.53  1.15  1.15  1.15  1.15  1.15  1.15  
42          1.92  1.92  1.92  1.92  1.92  1.92  1.92  1.53  1.53  1.15  1.15  1.15  1.15  1.15  1.15  
43          1.92  1.92  1.92  1.92  1.92  1.92  1.92  1.53  1.53  1.15  1.15  1.15  1.15  1.15  1.15  
44          1.92  1.92  1.92  1.92  1.92  1.92  1.92  1.53  1.53  1.15  1.15  1.15  1.15  1.15  1.15  
45          1.92  1.92  1.92  1.92  1.92  1.92  1.92  1.53  1.53  1.15  1.15  1.15  1.15  1.15  1.15  

[*,*,F2 ]:  K1    K2    K3    K4    K5    K6    K7    K8    K9    K10   K11   K12   K13   K14   K15   :=
1           1.92  1.92  1.92  1.92  1.92  1.92  1.92  1.53  1.53  1.15  1.15  1.15  1.15  1.15  1.15  
2           1.92  1.92  1.92  1.92  1.92  1.92  1.92  1.53  1.53  1.15  1.15  1.15  1.15  1.15  1.15  
3           1.92  1.92  1.92  1.92  1.92  1.92  1.92  1.53  1.53  1.15  1.15  1.15  1.15  1.15  1.15  
4           1.92  1.92  1.92  1.92  1.92  1.92  1.92  1.53  1.53  1.15  1.15  1.15  1.15  1.15  1.15  
5           1.92  1.92  1.92  1.92  1.92  1.92  1.92  1.53  1.53  1.15  1.15  1.15  1.15  1.15  1.15  
6           1.92  1.92  1.92  1.92  1.92  1.92  1.92  1.53  1.53  1.15  1.15  1.15  1.15  1.15  1.15  
7           1.92  1.92  1.92  1.92  1.92  1.92  1.92  1.53  1.53  1.15  1.15  1.15  1.15  1.15  1.15  
8           1.92  1.92  1.92  1.92  1.92  1.92  1.92  1.53  1.53  1.15  1.15  1.15  1.15  1.15  1.15  
9           1.92  1.92  1.92  1.92  1.92  1.92  1.92  1.53  1.53  1.15  1.15  1.15  1.15  1.15  1.15  
10          1.92  1.92  1.92  1.92  1.92  1.92  1.92  1.53  1.53  1.15  1.15  1.15  1.15  1.15  1.15  
11          1.92  1.92  1.92  1.92  1.92  1.92  1.92  1.53  1.53  1.15  1.15  1.15  1.15  1.15  1.15  
12          1.92  1.92  1.92  1.92  1.92  1.92  1.92  1.53  1.53  1.15  1.15  1.15  1.15  1.15  1.15  
13          1.92  1.92  1.92  1.92  1.92  1.92  1.92  1.53  1.53  1.15  1.15  1.15  1.15  1.15  1.15  
14          1.92  1.92  1.92  1.92  1.92  1.92  1.92  1.53  1.53  1.15  1.15  1.15  1.15  1.15  1.15  
15          1.92  1.92  1.92  1.92  1.92  1.92  1.92  1.53  1.53  1.15  1.15  1.15  1.15  1.15  1.15  
16          1.92  1.92  1.92  1.92  1.92  1.92  1.92  1.53  1.53  1.15  1.15  1.15  1.15  1.15  1.15  
17          1.92  1.92  1.92  1.92  1.92  1.92  1.92  1.53  1.53  1.15  1.15  1.15  1.15  1.15  1.15  
18          1.92  1.92  1.92  1.92  1.92  1.92  1.92  1.53  1.53  1.15  1.15  1.15  1.15  1.15  1.15  
19          1.92  1.92  1.92  1.92  1.92  1.92  1.92  1.53  1.53  1.15  1.15  1.15  1.15  1.15  1.15  
20          1.92  1.92  1.92  1.92  1.92  1.92  1.92  1.53  1.53  1.15  1.15  1.15  1.15  1.15  1.15  
21          1.92  1.92  1.92  1.92  1.92  1.92  1.92  1.53  1.53  1.15  1.15  1.15  1.15  1.15  1.15  
22          1.92  1.92  1.92  1.92  1.92  1.92  1.92  1.53  1.53  1.15  1.15  1.15  1.15  1.15  1.15  
23          1.92  1.92  1.92  1.92  1.92  1.92  1.92  1.53  1.53  1.15  1.15  1.15  1.15  1.15  1.15  
24          1.92  1.92  1.92  1.92  1.92  1.92  1.92  1.53  1.53  1.15  1.15  1.15  1.15  1.15  1.15  
25          1.82  1.82  1.82  1.82  1.82  1.82  1.82  1.45  1.45  1.09  1.09  1.09  1.09  1.09  1.09  
26          1.82  1.82  1.82  1.82  1.82  1.82  1.82  1.45  1.45  1.09  1.09  1.09  1.09  1.09  1.09  
27          1.82  1.82  1.82  1.82  1.82  1.82  1.82  1.45  1.45  1.09  1.09  1.09  1.09  1.09  1.09  
28          1.82  1.82  1.82  1.82  1.82  1.82  1.82  1.45  1.45  1.09  1.09  1.09  1.09  1.09  1.09  
29          1.82  1.82  1.82  1.82  1.82  1.82  1.82  1.45  1.45  1.09  1.09  1.09  1.09  1.09  1.09  
30          1.82  1.82  1.82  1.82  1.82  1.82  1.82  1.45  1.45  1.09  1.09  1.09  1.09  1.09  1.09  
31          1.82  1.82  1.82  1.82  1.82  1.82  1.82  1.45  1.45  1.09  1.09  1.09  1.09  1.09  1.09  
32          1.82  1.82  1.82  1.82  1.82  1.82  1.82  1.45  1.45  1.09  1.09  1.09  1.09  1.09  1.09  
33          1.82  1.82  1.82  1.82  1.82  1.82  1.82  1.45  1.45  1.09  1.09  1.09  1.09  1.09  1.09  
34          1.92  1.92  1.92  1.92  1.92  1.92  1.92  1.53  1.53  1.15  1.15  1.15  1.15  1.15  1.15  
35          1.92  1.92  1.92  1.92  1.92  1.92  1.92  1.53  1.53  1.15  1.15  1.15  1.15  1.15  1.15  
36          1.92  1.92  1.92  1.92  1.92  1.92  1.92  1.53  1.53  1.15  1.15  1.15  1.15  1.15  1.15  
37          1.92  1.92  1.92  1.92  1.92  1.92  1.92  1.53  1.53  1.15  1.15  1.15  1.15  1.15  1.15  
38          1.92  1.92  1.92  1.92  1.92  1.92  1.92  1.53  1.53  1.15  1.15  1.15  1.15  1.15  1.15  
39          1.92  1.92  1.92  1.92  1.92  1.92  1.92  1.53  1.53  1.15  1.15  1.15  1.15  1.15  1.15  
40          1.92  1.92  1.92  1.92  1.92  1.92  1.92  1.53  1.53  1.15  1.15  1.15  1.15  1.15  1.15  
41          1.92  1.92  1.92  1.92  1.92  1.92  1.92  1.53  1.53  1.15  1.15  1.15  1.15  1.15  1.15  
42          1.92  1.92  1.92  1.92  1.92  1.92  1.92  1.53  1.53  1.15  1.15  1.15  1.15  1.15  1.15  
43          1.92  1.92  1.92  1.92  1.92  1.92  1.92  1.53  1.53  1.15  1.15  1.15  1.15  1.15  1.15  
44          1.92  1.92  1.92  1.92  1.92  1.92  1.92  1.53  1.53  1.15  1.15  1.15  1.15  1.15  1.15  
45          1.92  1.92  1.92  1.92  1.92  1.92  1.92  1.53  1.53  1.15  1.15  1.15  1.15  1.15  1.15  

[*,*,F3 ]:  K1    K2    K3    K4    K5    K6    K7    K8    K9    K10   K11   K12   K13   K14   K15   :=
1           1.80  1.80  1.80  1.80  1.80  1.80  1.80  1.44  1.44  1.08  1.08  1.08  1.08  1.08  1.08  
2           1.80  1.80  1.80  1.80  1.80  1.80  1.80  1.44  1.44  1.08  1.08  1.08  1.08  1.08  1.08  
3           1.80  1.80  1.80  1.80  1.80  1.80  1.80  1.44  1.44  1.08  1.08  1.08  1.08  1.08  1.08  
4           1.80  1.80  1.80  1.80  1.80  1.80  1.80  1.44  1.44  1.08  1.08  1.08  1.08  1.08  1.08  
5           1.80  1.80  1.80  1.80  1.80  1.80  1.80  1.44  1.44  1.08  1.08  1.08  1.08  1.08  1.08  
6           1.80  1.80  1.80  1.80  1.80  1.80  1.80  1.44  1.44  1.08  1.08  1.08  1.08  1.08  1.08  
7           1.80  1.80  1.80  1.80  1.80  1.80  1.80  1.44  1.44  1.08  1.08  1.08  1.08  1.08  1.08  
8           1.80  1.80  1.80  1.80  1.80  1.80  1.80  1.44  1.44  1.08  1.08  1.08  1.08  1.08  1.08  
9           1.80  1.80  1.80  1.80  1.80  1.80  1.80  1.44  1.44  1.08  1.08  1.08  1.08  1.08  1.08  
10          1.80  1.80  1.80  1.80  1.80  1.80  1.80  1.44  1.44  1.08  1.08  1.08  1.08  1.08  1.08  
11          1.80  1.80  1.80  1.80  1.80  1.80  1.80  1.44  1.44  1.08  1.08  1.08  1.08  1.08  1.08  
12          1.80  1.80  1.80  1.80  1.80  1.80  1.80  1.44  1.44  1.08  1.08  1.08  1.08  1.08  1.08  
13          1.80  1.80  1.80  1.80  1.80  1.80  1.80  1.44  1.44  1.08  1.08  1.08  1.08  1.08  1.08  
14          1.80  1.80  1.80  1.80  1.80  1.80  1.80  1.44  1.44  1.08  1.08  1.08  1.08  1.08  1.08  
15          1.80  1.80  1.80  1.80  1.80  1.80  1.80  1.44  1.44  1.08  1.08  1.08  1.08  1.08  1.08  
16          1.80  1.80  1.80  1.80  1.80  1.80  1.80  1.44  1.44  1.08  1.08  1.08  1.08  1.08  1.08  
17          1.80  1.80  1.80  1.80  1.80  1.80  1.80  1.44  1.44  1.08  1.08  1.08  1.08  1.08  1.08  
18          1.80  1.80  1.80  1.80  1.80  1.80  1.80  1.44  1.44  1.08  1.08  1.08  1.08  1.08  1.08  
19          1.80  1.80  1.80  1.80  1.80  1.80  1.80  1.44  1.44  1.08  1.08  1.08  1.08  1.08  1.08  
20          1.80  1.80  1.80  1.80  1.80  1.80  1.80  1.44  1.44  1.08  1.08  1.08  1.08  1.08  1.08  
21          1.80  1.80  1.80  1.80  1.80  1.80  1.80  1.44  1.44  1.08  1.08  1.08  1.08  1.08  1.08  
22          1.80  1.80  1.80  1.80  1.80  1.80  1.80  1.44  1.44  1.08  1.08  1.08  1.08  1.08  1.08  
23          1.80  1.80  1.80  1.80  1.80  1.80  1.80  1.44  1.44  1.08  1.08  1.08  1.08  1.08  1.08  
24          1.80  1.80  1.80  1.80  1.80  1.80  1.80  1.44  1.44  1.08  1.08  1.08  1.08  1.08  1.08  
25          1.71  1.71  1.71  1.71  1.71  1.71  1.71  1.36  1.36  1.03  1.03  1.03  1.03  1.03  1.03  
26          1.71  1.71  1.71  1.71  1.71  1.71  1.71  1.36  1.36  1.03  1.03  1.03  1.03  1.03  1.03  
27          1.71  1.71  1.71  1.71  1.71  1.71  1.71  1.36  1.36  1.03  1.03  1.03  1.03  1.03  1.03  
28          1.71  1.71  1.71  1.71  1.71  1.71  1.71  1.36  1.36  1.03  1.03  1.03  1.03  1.03  1.03  
29          1.71  1.71  1.71  1.71  1.71  1.71  1.71  1.36  1.36  1.03  1.03  1.03  1.03  1.03  1.03  
30          1.71  1.71  1.71  1.71  1.71  1.71  1.71  1.36  1.36  1.03  1.03  1.03  1.03  1.03  1.03  
31          1.71  1.71  1.71  1.71  1.71  1.71  1.71  1.36  1.36  1.03  1.03  1.03  1.03  1.03  1.03  
32          1.71  1.71  1.71  1.71  1.71  1.71  1.71  1.36  1.36  1.03  1.03  1.03  1.03  1.03  1.03  
33          1.71  1.71  1.71  1.71  1.71  1.71  1.71  1.36  1.36  1.03  1.03  1.03  1.03  1.03  1.03  
34          1.80  1.80  1.80  1.80  1.80  1.80  1.80  1.44  1.44  1.08  1.08  1.08  1.08  1.08  1.08  
35          1.80  1.80  1.80  1.80  1.80  1.80  1.80  1.44  1.44  1.08  1.08  1.08  1.08  1.08  1.08  
36          1.80  1.80  1.80  1.80  1.80  1.80  1.80  1.44  1.44  1.08  1.08  1.08  1.08  1.08  1.08  
37          1.80  1.80  1.80  1.80  1.80  1.80  1.80  1.44  1.44  1.08  1.08  1.08  1.08  1.08  1.08  
38          1.80  1.80  1.80  1.80  1.80  1.80  1.80  1.44  1.44  1.08  1.08  1.08  1.08  1.08  1.08  
39          1.80  1.80  1.80  1.80  1.80  1.80  1.80  1.44  1.44  1.08  1.08  1.08  1.08  1.08  1.08  
40          1.80  1.80  1.80  1.80  1.80  1.80  1.80  1.44  1.44  1.08  1.08  1.08  1.08  1.08  1.08  
41          1.80  1.80  1.80  1.80  1.80  1.80  1.80  1.44  1.44  1.08  1.08  1.08  1.08  1.08  1.08  
42          1.80  1.80  1.80  1.80  1.80  1.80  1.80  1.44  1.44  1.08  1.08  1.08  1.08  1.08  1.08  
43          1.80  1.80  1.80  1.80  1.80  1.80  1.80  1.44  1.44  1.08  1.08  1.08  1.08  1.08  1.08  
44          1.80  1.80  1.80  1.80  1.80  1.80  1.80  1.44  1.44  1.08  1.08  1.08  1.08  1.08  1.08  
45          1.80  1.80  1.80  1.80  1.80  1.80  1.80  1.44  1.44  1.08  1.08  1.08  1.08  1.08  1.08  
; # downloads resource k can do at front f in time t if intermediate time slot

param E:= 

[*,*,F1 ]:  K1    K2    K3    K4    K5    K6    K7    K8    K9    K10   K11   K12   K13   K14   K15   :=
1           0.38  0.58  0.65  0.50  0.88  0.35  0.35  0.20  0.38  0.31  0.20  0.20  0.51  0.48  0.17  
2           0.38  0.58  0.65  0.50  0.88  0.35  0.35  0.20  0.38  0.31  0.20  0.20  0.51  0.48  0.17  
3           0.38  0.58  0.65  0.50  0.88  0.35  0.35  0.20  0.38  0.31  0.20  0.20  0.51  0.48  0.17  
4           0.38  0.58  0.65  0.50  0.88  0.35  0.35  0.20  0.38  0.31  0.20  0.20  0.51  0.48  0.17  
5           0.38  0.58  0.65  0.50  0.88  0.35  0.35  0.20  0.38  0.31  0.20  0.20  0.51  0.48  0.17  
6           0.38  0.58  0.65  0.50  0.88  0.35  0.35  0.20  0.38  0.31  0.20  0.20  0.51  0.48  0.17  
7           0.38  0.58  0.65  0.50  0.88  0.35  0.35  0.20  0.38  0.31  0.20  0.20  0.51  0.48  0.17  
8           0.38  0.58  0.65  0.50  0.88  0.35  0.35  0.20  0.38  0.31  0.20  0.20  0.51  0.48  0.17  
9           0.38  0.58  0.65  0.50  0.88  0.35  0.35  0.20  0.38  0.31  0.20  0.20  0.51  0.48  0.17  
10          0.38  0.58  0.65  0.50  0.88  0.35  0.35  0.20  0.38  0.31  0.20  0.20  0.51  0.48  0.17  
11          0.38  0.58  0.65  0.50  0.88  0.35  0.35  0.20  0.38  0.31  0.20  0.20  0.51  0.48  0.17  
12          0.38  0.58  0.65  0.50  0.88  0.35  0.35  0.20  0.38  0.31  0.20  0.20  0.51  0.48  0.17  
13          0.38  0.58  0.65  0.50  0.88  0.35  0.35  0.20  0.38  0.31  0.20  0.20  0.51  0.48  0.17  
14          0.38  0.58  0.65  0.50  0.88  0.35  0.35  0.20  0.38  0.31  0.20  0.20  0.51  0.48  0.17  
15          0.38  0.58  0.65  0.50  0.88  0.35  0.35  0.20  0.38  0.31  0.20  0.20  0.51  0.48  0.17  
16          0.38  0.58  0.65  0.50  0.88  0.35  0.35  0.20  0.38  0.31  0.20  0.20  0.51  0.48  0.17  
17          0.38  0.58  0.65  0.50  0.88  0.35  0.35  0.20  0.38  0.31  0.20  0.20  0.51  0.48  0.17  
18          0.38  0.58  0.65  0.50  0.88  0.35  0.35  0.20  0.38  0.31  0.20  0.20  0.51  0.48  0.17  
19          0.38  0.58  0.65  0.50  0.88  0.35  0.35  0.20  0.38  0.31  0.20  0.20  0.51  0.48  0.17  
20          0.38  0.58  0.65  0.50  0.88  0.35  0.35  0.20  0.38  0.31  0.20  0.20  0.51  0.48  0.17  
21          0.38  0.58  0.65  0.50  0.88  0.35  0.35  0.20  0.38  0.31  0.20  0.20  0.51  0.48  0.17  
22          0.38  0.58  0.65  0.50  0.88  0.35  0.35  0.20  0.38  0.31  0.20  0.20  0.51  0.48  0.17  
23          0.38  0.58  0.65  0.50  0.88  0.35  0.35  0.20  0.38  0.31  0.20  0.20  0.51  0.48  0.17  
24          0.38  0.58  0.65  0.50  0.88  0.35  0.35  0.20  0.38  0.31  0.20  0.20  0.51  0.48  0.17  
25          0.36  0.55  0.62  0.47  0.84  0.33  0.33  0.19  0.36  0.29  0.19  0.19  0.48  0.46  0.16  
26          0.36  0.55  0.62  0.47  0.84  0.33  0.33  0.19  0.36  0.29  0.19  0.19  0.48  0.46  0.16  
27          0.36  0.55  0.62  0.47  0.84  0.33  0.33  0.19  0.36  0.29  0.19  0.19  0.48  0.46  0.16  
28          0.36  0.55  0.62  0.47  0.84  0.33  0.33  0.19  0.36  0.29  0.19  0.19  0.48  0.46  0.16  
29          0.36  0.55  0.62  0.47  0.84  0.33  0.33  0.19  0.36  0.29  0.19  0.19  0.48  0.46  0.16  
30          0.36  0.55  0.62  0.47  0.84  0.33  0.33  0.19  0.36  0.29  0.19  0.19  0.48  0.46  0.16  
31          0.36  0.55  0.62  0.47  0.84  0.33  0.33  0.19  0.36  0.29  0.19  0.19  0.48  0.46  0.16  
32          0.36  0.55  0.62  0.47  0.84  0.33  0.33  0.19  0.36  0.29  0.19  0.19  0.48  0.46  0.16  
33          0.36  0.55  0.62  0.47  0.84  0.33  0.33  0.19  0.36  0.29  0.19  0.19  0.48  0.46  0.16  
34          0.38  0.58  0.65  0.50  0.88  0.35  0.35  0.20  0.38  0.31  0.20  0.20  0.51  0.48  0.17  
35          0.38  0.58  0.65  0.50  0.88  0.35  0.35  0.20  0.38  0.31  0.20  0.20  0.51  0.48  0.17  
36          0.38  0.58  0.65  0.50  0.88  0.35  0.35  0.20  0.38  0.31  0.20  0.20  0.51  0.48  0.17  
37          0.38  0.58  0.65  0.50  0.88  0.35  0.35  0.20  0.38  0.31  0.20  0.20  0.51  0.48  0.17  
38          0.38  0.58  0.65  0.50  0.88  0.35  0.35  0.20  0.38  0.31  0.20  0.20  0.51  0.48  0.17  
39          0.38  0.58  0.65  0.50  0.88  0.35  0.35  0.20  0.38  0.31  0.20  0.20  0.51  0.48  0.17  
40          0.38  0.58  0.65  0.50  0.88  0.35  0.35  0.20  0.38  0.31  0.20  0.20  0.51  0.48  0.17  
41          0.38  0.58  0.65  0.50  0.88  0.35  0.35  0.20  0.38  0.31  0.20  0.20  0.51  0.48  0.17  
42          0.38  0.58  0.65  0.50  0.88  0.35  0.35  0.20  0.38  0.31  0.20  0.20  0.51  0.48  0.17  
43          0.38  0.58  0.65  0.50  0.88  0.35  0.35  0.20  0.38  0.31  0.20  0.20  0.51  0.48  0.17  
44          0.38  0.58  0.65  0.50  0.88  0.35  0.35  0.20  0.38  0.31  0.20  0.20  0.51  0.48  0.17  
45          0.38  0.58  0.65  0.50  0.88  0.35  0.35  0.20  0.38  0.31  0.20  0.20  0.51  0.48  0.17  

[*,*,F2 ]:  K1    K2    K3    K4    K5    K6    K7    K8    K9    K10   K11   K12   K13   K14   K15   :=
1           0.44  0.52  0.52  0.54  0.96  0.36  0.25  0.21  0.50  0.25  0.09  0.15  0.41  0.46  0.29  
2           0.44  0.52  0.52  0.54  0.96  0.36  0.25  0.21  0.50  0.25  0.09  0.15  0.41  0.46  0.29  
3           0.44  0.52  0.52  0.54  0.96  0.36  0.25  0.21  0.50  0.25  0.09  0.15  0.41  0.46  0.29  
4           0.44  0.52  0.52  0.54  0.96  0.36  0.25  0.21  0.50  0.25  0.09  0.15  0.41  0.46  0.29  
5           0.44  0.52  0.52  0.54  0.96  0.36  0.25  0.21  0.50  0.25  0.09  0.15  0.41  0.46  0.29  
6           0.44  0.52  0.52  0.54  0.96  0.36  0.25  0.21  0.50  0.25  0.09  0.15  0.41  0.46  0.29  
7           0.44  0.52  0.52  0.54  0.96  0.36  0.25  0.21  0.50  0.25  0.09  0.15  0.41  0.46  0.29  
8           0.44  0.52  0.52  0.54  0.96  0.36  0.25  0.21  0.50  0.25  0.09  0.15  0.41  0.46  0.29  
9           0.44  0.52  0.52  0.54  0.96  0.36  0.25  0.21  0.50  0.25  0.09  0.15  0.41  0.46  0.29  
10          0.44  0.52  0.52  0.54  0.96  0.36  0.25  0.21  0.50  0.25  0.09  0.15  0.41  0.46  0.29  
11          0.44  0.52  0.52  0.54  0.96  0.36  0.25  0.21  0.50  0.25  0.09  0.15  0.41  0.46  0.29  
12          0.44  0.52  0.52  0.54  0.96  0.36  0.25  0.21  0.50  0.25  0.09  0.15  0.41  0.46  0.29  
13          0.44  0.52  0.52  0.54  0.96  0.36  0.25  0.21  0.50  0.25  0.09  0.15  0.41  0.46  0.29  
14          0.44  0.52  0.52  0.54  0.96  0.36  0.25  0.21  0.50  0.25  0.09  0.15  0.41  0.46  0.29  
15          0.44  0.52  0.52  0.54  0.96  0.36  0.25  0.21  0.50  0.25  0.09  0.15  0.41  0.46  0.29  
16          0.44  0.52  0.52  0.54  0.96  0.36  0.25  0.21  0.50  0.25  0.09  0.15  0.41  0.46  0.29  
17          0.44  0.52  0.52  0.54  0.96  0.36  0.25  0.21  0.50  0.25  0.09  0.15  0.41  0.46  0.29  
18          0.44  0.52  0.52  0.54  0.96  0.36  0.25  0.21  0.50  0.25  0.09  0.15  0.41  0.46  0.29  
19          0.44  0.52  0.52  0.54  0.96  0.36  0.25  0.21  0.50  0.25  0.09  0.15  0.41  0.46  0.29  
20          0.44  0.52  0.52  0.54  0.96  0.36  0.25  0.21  0.50  0.25  0.09  0.15  0.41  0.46  0.29  
21          0.44  0.52  0.52  0.54  0.96  0.36  0.25  0.21  0.50  0.25  0.09  0.15  0.41  0.46  0.29  
22          0.44  0.52  0.52  0.54  0.96  0.36  0.25  0.21  0.50  0.25  0.09  0.15  0.41  0.46  0.29  
23          0.44  0.52  0.52  0.54  0.96  0.36  0.25  0.21  0.50  0.25  0.09  0.15  0.41  0.46  0.29  
24          0.44  0.52  0.52  0.54  0.96  0.36  0.25  0.21  0.50  0.25  0.09  0.15  0.41  0.46  0.29  
25          0.42  0.49  0.49  0.51  0.91  0.35  0.24  0.20  0.48  0.24  0.09  0.14  0.39  0.44  0.27  
26          0.42  0.49  0.49  0.51  0.91  0.35  0.24  0.20  0.48  0.24  0.09  0.14  0.39  0.44  0.27  
27          0.42  0.49  0.49  0.51  0.91  0.35  0.24  0.20  0.48  0.24  0.09  0.14  0.39  0.44  0.27  
28          0.42  0.49  0.49  0.51  0.91  0.35  0.24  0.20  0.48  0.24  0.09  0.14  0.39  0.44  0.27  
29          0.42  0.49  0.49  0.51  0.91  0.35  0.24  0.20  0.48  0.24  0.09  0.14  0.39  0.44  0.27  
30          0.42  0.49  0.49  0.51  0.91  0.35  0.24  0.20  0.48  0.24  0.09  0.14  0.39  0.44  0.27  
31          0.42  0.49  0.49  0.51  0.91  0.35  0.24  0.20  0.48  0.24  0.09  0.14  0.39  0.44  0.27  
32          0.42  0.49  0.49  0.51  0.91  0.35  0.24  0.20  0.48  0.24  0.09  0.14  0.39  0.44  0.27  
33          0.42  0.49  0.49  0.51  0.91  0.35  0.24  0.20  0.48  0.24  0.09  0.14  0.39  0.44  0.27  
34          0.44  0.52  0.52  0.54  0.96  0.36  0.25  0.21  0.50  0.25  0.09  0.15  0.41  0.46  0.29  
35          0.44  0.52  0.52  0.54  0.96  0.36  0.25  0.21  0.50  0.25  0.09  0.15  0.41  0.46  0.29  
36          0.44  0.52  0.52  0.54  0.96  0.36  0.25  0.21  0.50  0.25  0.09  0.15  0.41  0.46  0.29  
37          0.44  0.52  0.52  0.54  0.96  0.36  0.25  0.21  0.50  0.25  0.09  0.15  0.41  0.46  0.29  
38          0.44  0.52  0.52  0.54  0.96  0.36  0.25  0.21  0.50  0.25  0.09  0.15  0.41  0.46  0.29  
39          0.44  0.52  0.52  0.54  0.96  0.36  0.25  0.21  0.50  0.25  0.09  0.15  0.41  0.46  0.29  
40          0.44  0.52  0.52  0.54  0.96  0.36  0.25  0.21  0.50  0.25  0.09  0.15  0.41  0.46  0.29  
41          0.44  0.52  0.52  0.54  0.96  0.36  0.25  0.21  0.50  0.25  0.09  0.15  0.41  0.46  0.29  
42          0.44  0.52  0.52  0.54  0.96  0.36  0.25  0.21  0.50  0.25  0.09  0.15  0.41  0.46  0.29  
43          0.44  0.52  0.52  0.54  0.96  0.36  0.25  0.21  0.50  0.25  0.09  0.15  0.41  0.46  0.29  
44          0.44  0.52  0.52  0.54  0.96  0.36  0.25  0.21  0.50  0.25  0.09  0.15  0.41  0.46  0.29  
45          0.44  0.52  0.52  0.54  0.96  0.36  0.25  0.21  0.50  0.25  0.09  0.15  0.41  0.46  0.29  

[*,*,F3 ]:  K1    K2    K3    K4    K5    K6    K7    K8    K9    K10   K11   K12   K13   K14   K15   :=
1           0.36  0.67  0.67  0.45  0.94  0.20  0.22  0.22  0.37  0.27  0.17  0.15  0.42  0.41  0.22  
2           0.36  0.67  0.67  0.45  0.94  0.20  0.22  0.22  0.37  0.27  0.17  0.15  0.42  0.41  0.22  
3           0.36  0.67  0.67  0.45  0.94  0.20  0.22  0.22  0.37  0.27  0.17  0.15  0.42  0.41  0.22  
4           0.36  0.67  0.67  0.45  0.94  0.20  0.22  0.22  0.37  0.27  0.17  0.15  0.42  0.41  0.22  
5           0.36  0.67  0.67  0.45  0.94  0.20  0.22  0.22  0.37  0.27  0.17  0.15  0.42  0.41  0.22  
6           0.36  0.67  0.67  0.45  0.94  0.20  0.22  0.22  0.37  0.27  0.17  0.15  0.42  0.41  0.22  
7           0.36  0.67  0.67  0.45  0.94  0.20  0.22  0.22  0.37  0.27  0.17  0.15  0.42  0.41  0.22  
8           0.36  0.67  0.67  0.45  0.94  0.20  0.22  0.22  0.37  0.27  0.17  0.15  0.42  0.41  0.22  
9           0.36  0.67  0.67  0.45  0.94  0.20  0.22  0.22  0.37  0.27  0.17  0.15  0.42  0.41  0.22  
10          0.36  0.67  0.67  0.45  0.94  0.20  0.22  0.22  0.37  0.27  0.17  0.15  0.42  0.41  0.22  
11          0.36  0.67  0.67  0.45  0.94  0.20  0.22  0.22  0.37  0.27  0.17  0.15  0.42  0.41  0.22  
12          0.36  0.67  0.67  0.45  0.94  0.20  0.22  0.22  0.37  0.27  0.17  0.15  0.42  0.41  0.22  
13          0.36  0.67  0.67  0.45  0.94  0.20  0.22  0.22  0.37  0.27  0.17  0.15  0.42  0.41  0.22  
14          0.36  0.67  0.67  0.45  0.94  0.20  0.22  0.22  0.37  0.27  0.17  0.15  0.42  0.41  0.22  
15          0.36  0.67  0.67  0.45  0.94  0.20  0.22  0.22  0.37  0.27  0.17  0.15  0.42  0.41  0.22  
16          0.36  0.67  0.67  0.45  0.94  0.20  0.22  0.22  0.37  0.27  0.17  0.15  0.42  0.41  0.22  
17          0.36  0.67  0.67  0.45  0.94  0.20  0.22  0.22  0.37  0.27  0.17  0.15  0.42  0.41  0.22  
18          0.36  0.67  0.67  0.45  0.94  0.20  0.22  0.22  0.37  0.27  0.17  0.15  0.42  0.41  0.22  
19          0.36  0.67  0.67  0.45  0.94  0.20  0.22  0.22  0.37  0.27  0.17  0.15  0.42  0.41  0.22  
20          0.36  0.67  0.67  0.45  0.94  0.20  0.22  0.22  0.37  0.27  0.17  0.15  0.42  0.41  0.22  
21          0.36  0.67  0.67  0.45  0.94  0.20  0.22  0.22  0.37  0.27  0.17  0.15  0.42  0.41  0.22  
22          0.36  0.67  0.67  0.45  0.94  0.20  0.22  0.22  0.37  0.27  0.17  0.15  0.42  0.41  0.22  
23          0.36  0.67  0.67  0.45  0.94  0.20  0.22  0.22  0.37  0.27  0.17  0.15  0.42  0.41  0.22  
24          0.36  0.67  0.67  0.45  0.94  0.20  0.22  0.22  0.37  0.27  0.17  0.15  0.42  0.41  0.22  
25          0.34  0.63  0.63  0.43  0.89  0.19  0.21  0.20  0.35  0.26  0.16  0.14  0.40  0.39  0.21  
26          0.34  0.63  0.63  0.43  0.89  0.19  0.21  0.20  0.35  0.26  0.16  0.14  0.40  0.39  0.21  
27          0.34  0.63  0.63  0.43  0.89  0.19  0.21  0.20  0.35  0.26  0.16  0.14  0.40  0.39  0.21  
28          0.34  0.63  0.63  0.43  0.89  0.19  0.21  0.20  0.35  0.26  0.16  0.14  0.40  0.39  0.21  
29          0.34  0.63  0.63  0.43  0.89  0.19  0.21  0.20  0.35  0.26  0.16  0.14  0.40  0.39  0.21  
30          0.34  0.63  0.63  0.43  0.89  0.19  0.21  0.20  0.35  0.26  0.16  0.14  0.40  0.39  0.21  
31          0.34  0.63  0.63  0.43  0.89  0.19  0.21  0.20  0.35  0.26  0.16  0.14  0.40  0.39  0.21  
32          0.34  0.63  0.63  0.43  0.89  0.19  0.21  0.20  0.35  0.26  0.16  0.14  0.40  0.39  0.21  
33          0.34  0.63  0.63  0.43  0.89  0.19  0.21  0.20  0.35  0.26  0.16  0.14  0.40  0.39  0.21  
34          0.36  0.67  0.67  0.45  0.94  0.20  0.22  0.22  0.37  0.27  0.17  0.15  0.42  0.41  0.22  
35          0.36  0.67  0.67  0.45  0.94  0.20  0.22  0.22  0.37  0.27  0.17  0.15  0.42  0.41  0.22  
36          0.36  0.67  0.67  0.45  0.94  0.20  0.22  0.22  0.37  0.27  0.17  0.15  0.42  0.41  0.22  
37          0.36  0.67  0.67  0.45  0.94  0.20  0.22  0.22  0.37  0.27  0.17  0.15  0.42  0.41  0.22  
38          0.36  0.67  0.67  0.45  0.94  0.20  0.22  0.22  0.37  0.27  0.17  0.15  0.42  0.41  0.22  
39          0.36  0.67  0.67  0.45  0.94  0.20  0.22  0.22  0.37  0.27  0.17  0.15  0.42  0.41  0.22  
40          0.36  0.67  0.67  0.45  0.94  0.20  0.22  0.22  0.37  0.27  0.17  0.15  0.42  0.41  0.22  
41          0.36  0.67  0.67  0.45  0.94  0.20  0.22  0.22  0.37  0.27  0.17  0.15  0.42  0.41  0.22  
42          0.36  0.67  0.67  0.45  0.94  0.20  0.22  0.22  0.37  0.27  0.17  0.15  0.42  0.41  0.22  
43          0.36  0.67  0.67  0.45  0.94  0.20  0.22  0.22  0.37  0.27  0.17  0.15  0.42  0.41  0.22  
44          0.36  0.67  0.67  0.45  0.94  0.20  0.22  0.22  0.37  0.27  0.17  0.15  0.42  0.41  0.22  
45          0.36  0.67  0.67  0.45  0.94  0.20  0.22  0.22  0.37  0.27  0.17  0.15  0.42  0.41  0.22  
; # downloads resource k can do at front f in time t if starting or ending flight

param W: 
	F1        F2        F3        :=
1	953.81    476.90    476.90    
2	3815.23   1907.61   1907.61   
3	3815.23   1907.61   1907.61   
4	3815.23   1907.61   1907.61   
5	3815.23   1907.61   1907.61   
6	3815.23   1907.61   1907.61   
7	3815.23   1907.61   1907.61   
8	3815.23   1907.61   1907.61   
9	3815.23   1907.61   1907.61   
10	3815.23   1907.61   1907.61   
11	3815.23   1907.61   1907.61   
12	3815.23   1907.61   1907.61   
13	3815.23   1907.61   1907.61   
14	3815.23   1907.61   1907.61   
15	3815.23   1907.61   1907.61   
16	3815.23   1907.61   1907.61   
17	3815.23   1907.61   1907.61   
18	3815.23   1907.61   1907.61   
19	1695.66   847.83    847.83    
20	1695.66   847.83    847.83    
21	1695.66   847.83    847.83    
22	1695.66   847.83    847.83    
23	1695.66   847.83    847.83    
24	1695.66   847.83    847.83    
25	1695.66   847.83    847.83    
26	1695.66   847.83    847.83    
27	1695.66   847.83    847.83    
28	1695.66   847.83    847.83    
29	1695.66   847.83    847.83    
30	1695.66   847.83    847.83    
31	1695.66   847.83    847.83    
32	1695.66   847.83    847.83    
33	1695.66   847.83    847.83    
34	1695.66   847.83    847.83    
35	1695.66   847.83    847.83    
36	1695.66   847.83    847.83    
37	1695.66   847.83    847.83    
38	1695.66   847.83    847.83    
39	1695.66   847.83    847.83    
40	1695.66   847.83    847.83    
41	1695.66   847.83    847.83    
42	1695.66   847.83    847.83    
43	1695.66   847.83    847.83    
44	1695.66   847.83    847.83    
45	423.91    211.96    211.96    
; # water needed at front f in time slot t

param M := 100000000; 

param a1:= 10000000;

param a2:= 100;

param a3:= 0.0001;
